9 2 8 0 5 8 3 9 -1 10 3 3 7 9 -1 
2 7 10 10 3 9 2 0 3 1 0 2 3 9 -1 
-1 0 10 10 -1 6 4 0 7 7 7 -1 2 6 -1 
1 1 9 0 -1 6 2 1 2 7 3 2 3 4 -1 
0 3 5 5 3 2 -1 1 3 4 9 -1 10 4 -1 
0 1 2 6 2 1 1 7 1 0 3 10 4 1 -1 
0 6 0 -1 9 2 3 8 3 1 4 5 4 6 -1 
10 7 10 2 10 1 -1 5 9 10 3 1 9 10 -1 
2 8 8 7 7 6 9 5 0 -1 6 5 0 1 -1 
-1 8 4 2 0 3 6 1 0 1 3 0 9 -1 -1 
7 4 7 8 5 9 5 8 6 6 3 6 10 6 -1 
8 2 -1 0 1 5 5 7 7 5 5 5 7 10 -1 
3 0 0 4 5 0 3 7 0 3 4 10 9 -1 -1 
5 8 1 2 6 4 6 -1 6 4 0 4 5 10 -1 
10 2 1 9 7 6 8 1 2 3 7 4 -1 5 -1 
-1 2 5 10 1 6 0 7 1 7 2 4 3 5 -1 
10 2 1 10 6 7 5 5 1 4 9 3 6 7 -1 
0 1 -1 0 9 0 7 5 4 1 3 6 -1 3 -1 
10 5 6 8 6 5 7 8 7 3 -1 8 9 4 -1 
3 4 9 6 8 2 4 10 6 1 5 10 0 10 -1 
